120
150
63
44
57
68
25
62
43
28
85
27
96
52
67
68
45
20
91
62
62
75
59
48
40
81
44
27
61
100
57
33
29
45
50
71
52
33
96
66
54
38
97
85
33
33
22
58
96
91
38
83
32
26
27
59
92
84
33
75
96
20
81
87
25
32
84
92
38
40
39
83
97
81
79
97
96
20
23
26
52
54
52
75
88
33
91
88
59
88
62
85
22
85
62
69
67
40
67
69
71
25
89
27
97
28
92
97
100
44
97
28
52
92
52
58
57
61
75
66
62
75
